\ENCODING=ISO-8859-1
\Problem name: GAPinst

Minimize
 obj: 10 x0 + 12 x1 + 13 x2 + 14 x3 + 15 x4 + 17 x5 + 21 x6 + 22 x7 + 23 x8
      + 24 x9 + 25 x10 + 28 x11 + 31 x12 + 32 x13 + 33 x14 + 34 x15 + 35 x16
      + 36 x17
Subject To
 c0: x0 + x6 + x12  = 1
 c1: x1 + x7 + x13  = 1
 c2: x2 + x8 + x14  = 1
 c3: x3 + x9 + x15  = 1
 c4: x4 + x10 + x16  = 1
 c5: x5 + x11 + x17  = 1
 c6: 6 x0 + 6 x1 + 6 x2 + 6 x3 + 6 x4 + 6 x5 <= 10
 c7: 4 x6 + 4 x7 + 4 x8 + 4 x9 + 4 x10 + 4 x11 <= 10
 c8: 2 x12 + 2 x13 + 2 x14 + 2 x15 + 2 x16 + 2 x17 <= 10
Bounds
      x0 = 1
 0 <= x1 <= 1
 0 <= x2 <= 1
 0 <= x3 <= 1
 0 <= x4 <= 1
 0 <= x5 <= 1
 0 <= x6 <= 1
 0 <= x7 <= 1
      x8 = 1
 0 <= x9 <= 1
      x10 = 1
 0 <= x11 <= 1
 0 <= x12 <= 1
      x13 = 1
 0 <= x14 <= 1
      x15 = 1
 0 <= x16 <= 1
      x17 = 1
End
